#######################################
### Exact MIP solver for the HHCRSP ###
#######################################
-- Instance file: new-instances/HHCRSP_300_60_78_1.0_C_RC.txt
-- Max threads: 4
-- Time limit: 999999 seconds
-- Use initial solution: No
Trivial flow violations prevented generating 1192460 variables.
Version identifier: 20.1.0.0 | 2020-11-10 | 9bedb6d68
CPXPARAM_Threads                                 4
CPXPARAM_TimeLimit                               999999
Parallel mode: deterministic, using up to 4 threads for concurrent optimization:
 * Starting dual Simplex on 1 thread...
 * Starting Barrier on 3 threads...
Tried aggregator 1 time.
LP Presolve eliminated 48222 rows and 11370 columns.
Reduced LP has 1330204 rows, 1261118 columns, and 31248137 nonzeros.
Presolve time = 35.24 sec. (6808.75 ticks)
Symmetry aggregator did 2174453 additional substitutions.

Iteration log . . .
Iteration:     1   Dual objective     =             0.000000
Iteration:  1345   Dual objective     =           406.666667

Dual crossover.
  Dual:  Fixing 1940 variables.
     1939 DMoves:  Infeasibility  1.90641947e-12  Objective  4.08666667e+02
        0 DMoves:  Infeasibility  8.15308144e-13  Objective  4.08666667e+02
  Dual:  Pushed 38, exchanged 1902.
  Primal:  Fixing 1348 variables.
     1347 PMoves:  Infeasibility  0.00000000e+00  Objective  4.08666667e+02
        0 PMoves:  Infeasibility  0.00000000e+00  Objective  4.08666667e+02
  Primal:  Pushed 1207, exchanged 141.

Dual simplex solved model.


Solution status from MIP model:
-- Processing time: 61.624 sec.
-- Memory used: 1194.98 MB
-- Best bound: inf
-- Obj value: 408.667
-- Gap: inf%
-- Total distance: 1226
-- Total tardiness: 0
-- Largest tardiness: 0
